p cnf 10 65
6 1 4 0
4 3 6 0
-7 3 -1 0
-8 -6 -4 0
-7 3 -8 0
-5 -7 -2 0
-5 6 3 0
1 5 4 0
3 -8 6 0
-7 1 10 0
1 4 3 0
-5 6 7 0
3 4 -10 0
-6 -7 1 0
6 4 -5 0
-5 1 -6 0
-9 1 10 0
4 -2 10 0
6 -9 4 0
3 10 1 0
5 3 -2 0
7 -9 -8 0
-1 4 3 0
-9 10 8 0
-8 6 1 0
2 10 -9 0
-9 4 -7 0
2 4 1 0
8 4 -9 0
6 2 10 0
-2 6 4 0
-8 6 -2 0
-9 -5 -8 0
4 -7 -8 0
-2 -9 -8 0
-2 4 9 0
-8 10 -9 0
-7 -8 10 0
10 2 3 0
-5 -10 1 0
9 -2 1 0
10 -2 -7 0
-2 6 9 0
-2 -7 -8 0
-8 -2 -4 0
6 -2 -7 0
-5 3 1 0
6 -5 -7 0
3 -2 6 0
-5 -7 3 0
1 -5 3 0
-10 -7 -8 0
-8 4 7 0
-4 6 -7 0
-9 -5 6 0
3 10 -7 0
-9 -7 1 0
10 -7 3 0
-2 -8 3 0
10 4 -5 0
6 -8 10 0
2 4 3 0
6 4 -7 0
4 -7 -2 0
-2 -8 10 0
%
0